c Sudoku solution
p cnf 729 0
248 0
261 0
311 0
328 0
349 0
352 0
367 0
386 0
487 0
493 0
512 0
526 0
533 0
373 0
571 0
625 0
659 0
792 0
818 0
837 0
617 0
855 0
876 0
696 0
883 0
913 0
924 0
947 0
777 0
557 0
999 0
589 0
334 0
395 0
414 0
475 0
978 0
758 0
429 0
721 0
822 0
962 0
869 0
442 0
146 0
165 0
119 0
132 0
174 0
282 0
279 0
297 0
153 0
254 0
127 0
223 0
739 0
545 0
672 0
188 0
191 0
981 0
894 0
785 0
716 0
935 0
956 0
841 0
215 0
236 0
451 0
466 0
438 0
631 0
684 0
598 0
564 0
643 0
668 0
744 0
763 0
